s td 17 74 90
b 1 1 5 7 9 12 16 18 20 23 24 25 27 30 33 34 37 38 43 44 46 48 49 53 54 58 61 62 65 67 71 72 78 79 84 86
b 2 2 3 4 5 6 7 9 11 12 13 14 15 16 17 18 20 21 22 23 24 25 26 27 29 30 32 33 34 35 37 38 39 40 41 42 43 44 46 47 48 49 50 51 52 53 54 55 56 57 58 59 61 62 65 66 67 68 69 70 71 72 73 74 75 76 77 78 79 82 84 86 87 88 89
b 3 2 3 4 5 6 7 9 11 12 13 14 15 16 17 18 20 21 22 23 24 25 26 27 29 30 32 33 34 35 37 38 39 40 41 42 43 44 46 47 48 49 50 51 52 53 54 55 56 57 58 59 61 62 65 66 67 68 69 70 71 72 73 74 75 76 77 78 79 82 86 87 88 89 90
b 4 2 3 4 5 6 7 9 11 12 13 14 15 16 17 18 20 21 22 23 25 26 27 29 30 32 33 34 35 37 38 39 40 41 42 43 44 46 47 48 49 50 51 52 53 54 55 56 57 58 59 61 62 63 65 66 67 68 69 70 71 72 73 74 75 76 77 78 79 82 86 87 88 89 90
b 5 2 4 6 7 8 9 15 16 17 18 20 21 22 23 26 30 33 35 37 39 40 46 47 48 52 53 54 55 56 58 59 63 67 68 71 73 74 75 88 90
b 6 2 3 4 6 7 9 11 12 13 14 15 16 17 18 20 21 22 23 25 26 27 29 30 32 33 34 37 38 39 40 41 42 43 44 45 46 47 48 49 50 51 52 53 54 55 57 58 59 61 62 63 65 66 67 68 69 70 71 72 73 74 75 76 77 78 79 82 86 87 88 89 90
b 7 2 4 6 7 9 11 13 14 15 16 18 21 22 23 25 26 29 30 32 37 38 39 40 41 42 43 44 45 48 49 50 51 52 53 54 55 57 58 62 63 65 66 67 69 71 74 76 78 79 82 85 86 87 88 89
b 8 2 4 6 7 9 11 14 21 23 26 28 29 32 38 39 40 42 43 45 48 50 51 52 53 54 55 57 58 62 63 65 67 69 74 76 78 79 82 85
b 9 3 11 12 13 16 22 26 27 29 30 32 33 34 37 38 40 44 45 47 50 58 62 63 65 68 70 72 73 74 77 78 80 86 87
b 10 2 3 4 5 6 7 11 12 13 14 15 16 17 18 20 22 24 25 26 27 29 30 32 33 34 36 37 39 41 42 43 44 47 48 51 52 54 55 57 58 59 61 62 65 66 67 68 69 71 72 73 74 76 77 78 79 82 86 87 88 89 90
b 11 4 5 6 7 12 14 15 16 17 19 20 24 26 27 29 30 33 34 36 39 43 44 47 48 51 52 54 55 57 58 61 62 65 66 67 71 73 74 76 77 78 86 87 88
b 12 2 3 4 5 6 7 9 11 12 13 14 15 16 17 18 20 21 22 23 24 25 26 27 29 30 31 32 33 34 35 37 38 39 40 41 42 43 44 46 47 48 49 50 51 52 53 55 56 57 58 59 61 62 65 66 67 68 69 70 71 72 73 74 75 76 77 78 79 82 84 86 87 88 89
b 13 2 3 4 5 6 7 9 11 12 13 14 15 16 17 18 20 21 22 23 24 25 26 27 29 30 31 32 33 34 35 37 38 39 40 41 42 44 46 47 48 49 50 51 52 53 55 56 57 58 59 60 61 62 65 66 67 68 69 70 71 72 73 74 75 76 77 78 82 84 86 87 88 89
b 14 2 3 4 5 6 7 9 10 11 13 14 15 16 17 18 20 21 22 23 24 25 26 27 29 31 32 34 35 37 39 40 41 42 44 47 48 50 52 53 55 56 57 59 60 65 66 68 69 70 72 74 76 77 82 84 87 88 89
b 15 3 5 7 9 10 14 15 16 17 18 20 21 24 31 32 35 37 39 40 41 42 50 52 53 59 66 68 69 70 72 74 76 81 84 87 88 89
b 16 2 4 5 6 7 9 12 13 14 15 16 18 21 23 24 27 29 30 31 32 33 34 35 38 39 41 42 46 48 49 50 51 52 53 55 57 59 60 61 65 66 67 68 69 70 71 72 73 74 75 76 77 78 82 83 84 86 87 88
b 17 2 4 5 6 7 12 14 15 18 21 23 29 30 31 33 34 35 39 42 48 49 51 53 55 57 59 60 61 64 66 68 69 70 71 72 73 74 76 77 78 82 83 84 86 87 88
1 2
2 3
2 12
3 4
3 10
4 5
4 6
6 7
6 9
7 8
10 11
12 13
13 14
13 16
14 15
16 17
